
c turning on binary mode checking

c parsing input formula with 6881 variables and 27868 clauses

c finished parsing, read 1633 bytes from proof file

c detected empty clause; start verification via backward checking

c 311 of 27868 clauses in core                            

c 43 of 369 lemmas in core using 353 resolution steps

c 0 RAT lemmas in core; 0 redundant literals in core lemmas

s VERIFIED

c verification time: 0.055 seconds
